
Gurobi 13.0.2 (win64) logging started Thu Jul 23 12:25:52 2026

Set parameter LogFile to value "E:\codes\ExactEBRP\results\gf_gurobi_performance_recovery_round29\development\moderate_seed3302__c3_replica__60s\external\native_logs\R.0.0.0.0_lp.gurobi.log"
Gurobi Optimizer version 13.0.2 build v13.0.2rc1 (win64 - Windows 10.0 (19045.2))

CPU model: 12th Gen Intel(R) Core(TM) i7-12700KF, instruction set [SSE2|AVX|AVX2]
Thread count: 12 physical cores, 20 logical processors, using up to 1 threads

Non-default parameters:
TimeLimit  8.1852905
MIPGap  0
MIPGapAbs  0
LogToConsole  0
Threads  1

Optimize a model with 11903 rows, 3374 columns and 67088 nonzeros (Min)
Model fingerprint: 0x8414511a
Model has 21 linear objective coefficients
Coefficient statistics:
  Matrix range     [7e-03, 1e+04]
  Objective range  [7e-03, 1e+00]
  Bounds range     [1e-02, 3e+02]
  RHS range        [1e-02, 5e+04]

Presolve removed 830 rows and 104 columns
Presolve time: 0.04s
Presolved: 11073 rows, 3461 columns, 64797 nonzeros

Iteration    Objective       Primal Inf.    Dual Inf.      Time
       0    0.0000000e+00   2.766372e+02   0.000000e+00      0s
    2321    1.4629998e-01   0.000000e+00   0.000000e+00      0s

Solved in 2321 iterations and 0.20 seconds (0.58 work units)
Optimal objective  1.462999783e-01

User-callback calls 2464, time in user-callback 0.00 sec
